% demand
num_movements = 17;
loading_factor = [1400, 1100, 1000, 1000, 1800, 1950, 1700, 1200, 1500, 800, 1800, 1450, 1350, 1550, 850, 1650, 1550];
pickup_time = [0, 0, 1, 2, 2, 2, 2, 4, 4, 4, 5, 5, 5, 5, 5, 7, 7];
delivery_time = [1, 2, 2, 4, 5, 4, 5, 5, 5, 5, 6, 9, 9, 6, 9, 9, 9];

% transporter definition
total_capacity = 7000;
num_decks = 3;
capacity = [3000, 1000, 3000];

% ways out of decks
num_ways_out = 1;
paths_out = array3d(decks, ways_out, decks, [
% ways out of deck d1
2, 3, 0, 

% ways out of deck d2
3, 0, 0, 

% ways out of deck d3
0, 0, 0,	

]);

